(set-logic QF_SLIA)
(declare-fun var0 () String)
(assert (str.in_re var0 (re.++ ((_ re.loop 0 106) (re.++ (re.union (str.to_re "I%") (re.union (str.to_re "P4") (re.union (str.to_re ")(") (str.to_re "Li3")))) (re.++ (re.union (str.to_re "7^;") (re.union (str.to_re ".") (re.union (str.to_re "l") (str.to_re "{|_")))) (re.++ (re.union (str.to_re "(L>") (re.union (str.to_re "#<k") (re.union (str.to_re "2") (str.to_re "H")))) (re.union (str.to_re "&>") (re.union (str.to_re "WS") (re.union (str.to_re "_5") (str.to_re "~yp")))))))) (re.++ ((_ re.loop 9 331) (re.++ (re.union (str.to_re "ss") (re.union (str.to_re "g3o") (re.union (str.to_re "\u0022gr") (str.to_re "b")))) (re.++ (re.union (str.to_re "N") (re.union (str.to_re "&$") (re.union (str.to_re "n<") (str.to_re "4+w")))) (re.++ (re.union (str.to_re "6}g") (re.union (str.to_re "L,=") (re.union (str.to_re "a^") (str.to_re "pa")))) (re.union (str.to_re "y") (re.union (str.to_re "ODz") (re.union (str.to_re "w}<") (str.to_re "@.I")))))))) (re.++ ((_ re.loop 1 840) (re.++ (re.union (str.to_re "KEP") (re.union (str.to_re "Hp") (re.union (str.to_re "v?u") (str.to_re "oq")))) (re.++ (re.union (str.to_re "%Xj") (re.union (str.to_re "U!") (re.union (str.to_re "=-") (str.to_re "R")))) (re.++ (re.union (str.to_re "Q") (re.union (str.to_re "y?") (re.union (str.to_re "V") (str.to_re "s")))) (re.union (str.to_re "[~") (re.union (str.to_re "\u0022") (re.union (str.to_re "[h%") (str.to_re "d")))))))) ((_ re.loop 11 311) (re.++ (re.union (str.to_re "~;n") (re.union (str.to_re "]") (re.union (str.to_re "o2") (str.to_re "+")))) (re.++ (re.union (str.to_re "=u") (re.union (str.to_re "PK") (re.union (str.to_re "c=") (str.to_re "h")))) (re.++ (re.union (str.to_re ">|~") (re.union (str.to_re "K?") (re.union (str.to_re "m`") (str.to_re "l")))) (re.union (str.to_re "!)0") (re.union (str.to_re "}Z") (re.union (str.to_re "b,O") (str.to_re "+")))))))))))))
(assert (not (str.in_re var0 (re.++ ((_ re.loop 20 209) (re.++ (re.union (str.to_re "\u0022,f") (re.union (str.to_re "t`#") (re.union (str.to_re "k") (str.to_re "]f")))) (re.++ (re.union (str.to_re "Bz,") (re.union (str.to_re "pm") (re.union (str.to_re "krh") (str.to_re "OuN")))) (re.++ (re.union (str.to_re "*") (re.union (str.to_re ";") (re.union (str.to_re "Ntk") (str.to_re "WOM")))) (re.union (str.to_re "bWx") (re.union (str.to_re "W__") (re.union (str.to_re ")a:") (str.to_re "O")))))))) (re.++ ((_ re.loop 13 533) (re.++ (re.union (str.to_re "&4.") (re.union (str.to_re "6hT") (re.union (str.to_re "7Pj") (str.to_re "A{")))) (re.++ (re.union (str.to_re "IU") (re.union (str.to_re "Z1C") (re.union (str.to_re "2") (str.to_re "u4Q")))) (re.++ (re.union (str.to_re "\\") (re.union (str.to_re "C@") (re.union (str.to_re "3/I") (str.to_re "$y")))) (re.union (str.to_re "Po") (re.union (str.to_re "]") (re.union (str.to_re "iPs") (str.to_re "~>~")))))))) (re.++ ((_ re.loop 12 590) (re.++ (re.union (str.to_re "U|c") (re.union (str.to_re "|G") (re.union (str.to_re "ekt") (str.to_re "N")))) (re.++ (re.union (str.to_re "i") (re.union (str.to_re "ZaK") (re.union (str.to_re "b@") (str.to_re "3@k")))) (re.++ (re.union (str.to_re "e~b") (re.union (str.to_re "Z") (re.union (str.to_re "-") (str.to_re "I")))) (re.union (str.to_re "iF") (re.union (str.to_re "yM") (re.union (str.to_re ")") (str.to_re "%fZ")))))))) ((_ re.loop 9 128) (re.++ (re.union (str.to_re "V") (re.union (str.to_re "`^") (re.union (str.to_re "MM") (str.to_re "Y")))) (re.++ (re.union (str.to_re ".") (re.union (str.to_re "^i") (re.union (str.to_re "&") (str.to_re "WG")))) (re.++ (re.union (str.to_re ":iV") (re.union (str.to_re "xa") (re.union (str.to_re "K") (str.to_re "/\\")))) (re.union (str.to_re "1") (re.union (str.to_re "y") (re.union (str.to_re "v") (str.to_re "P"))))))))))))))
(assert (not (str.in_re var0 (re.++ (re.* re.allchar) (re.++ (re.union (str.to_re "<") (re.union (str.to_re ">") (re.union (str.to_re "'") (re.union (str.to_re "\u0022") (str.to_re "&"))))) (re.* re.allchar))))))
(assert (<= 50 (str.len var0)))
(check-sat)
(get-model)
